lab3/P3a-pulp.lp
\* P3a *\
Minimize
OBJ: z
Subject To
_C1: xhk_0_0 + xhk_0_1 + xhk_0_2 + xhk_0_3 + xhk_0_4 + xhk_0_5 + xhk_0_6
 + xhk_0_7 + xhk_0_8 = 1
_C10: xhk_0_3 + xhk_0_4 + xhk_0_5 + xhk_1_3 + xhk_1_4 + xhk_1_5 - 2 xtc_0_1
 = 0
_C11: xhk_0_6 + xhk_0_7 + xhk_0_8 + xhk_1_6 + xhk_1_7 + xhk_1_8 - 2 xtc_0_2
 = 0
_C12: xhk_2_0 + xhk_2_1 + xhk_2_2 + xhk_3_0 + xhk_3_1 + xhk_3_2 - 2 xtc_1_0
 = 0
_C13: xhk_2_3 + xhk_2_4 + xhk_2_5 + xhk_3_3 + xhk_3_4 + xhk_3_5 - 2 xtc_1_1
 = 0
_C14: xhk_2_6 + xhk_2_7 + xhk_2_8 + xhk_3_6 + xhk_3_7 + xhk_3_8 - 2 xtc_1_2
 = 0
_C15: xhk_4_0 + xhk_4_1 + xhk_4_2 + xhk_5_0 + xhk_5_1 + xhk_5_2 - 2 xtc_2_0
 = 0
_C16: xhk_4_3 + xhk_4_4 + xhk_4_5 + xhk_5_3 + xhk_5_4 + xhk_5_5 - 2 xtc_2_1
 = 0
_C17: xhk_4_6 + xhk_4_7 + xhk_4_8 + xhk_5_6 + xhk_5_7 + xhk_5_8 - 2 xtc_2_2
 = 0
_C18: xhk_6_0 + xhk_6_1 + xhk_6_2 + xhk_7_0 + xhk_7_1 + xhk_7_2 - 2 xtc_3_0
 = 0
_C19: xhk_6_3 + xhk_6_4 + xhk_6_5 + xhk_7_3 + xhk_7_4 + xhk_7_5 - 2 xtc_3_1
 = 0
_C2: xhk_1_0 + xhk_1_1 + xhk_1_2 + xhk_1_3 + xhk_1_4 + xhk_1_5 + xhk_1_6
 + xhk_1_7 + xhk_1_8 = 1
_C20: xhk_6_6 + xhk_6_7 + xhk_6_8 + xhk_7_6 + xhk_7_7 + xhk_7_8 - 2 xtc_3_2
 = 0
_C21: 261.27 xhk_0_0 + 261.27 xhk_1_0 + 560.89 xhk_2_0 + 560.89 xhk_3_0
 + 310.51 xhk_4_0 + 310.51 xhk_5_0 + 105.8 xhk_6_0 + 105.8 xhk_7_0 <= 505.67
_C22: 261.27 xhk_0_1 + 261.27 xhk_1_1 + 560.89 xhk_2_1 + 560.89 xhk_3_1
 + 310.51 xhk_4_1 + 310.51 xhk_5_1 + 105.8 xhk_6_1 + 105.8 xhk_7_1 <= 505.67
_C23: 261.27 xhk_0_2 + 261.27 xhk_1_2 + 560.89 xhk_2_2 + 560.89 xhk_3_2
 + 310.51 xhk_4_2 + 310.51 xhk_5_2 + 105.8 xhk_6_2 + 105.8 xhk_7_2 <= 505.67
_C24: 261.27 xhk_0_3 + 261.27 xhk_1_3 + 560.89 xhk_2_3 + 560.89 xhk_3_3
 + 310.51 xhk_4_3 + 310.51 xhk_5_3 + 105.8 xhk_6_3 + 105.8 xhk_7_3 <= 503.68
_C25: 261.27 xhk_0_4 + 261.27 xhk_1_4 + 560.89 xhk_2_4 + 560.89 xhk_3_4
 + 310.51 xhk_4_4 + 310.51 xhk_5_4 + 105.8 xhk_6_4 + 105.8 xhk_7_4 <= 503.68
_C26: 261.27 xhk_0_5 + 261.27 xhk_1_5 + 560.89 xhk_2_5 + 560.89 xhk_3_5
 + 310.51 xhk_4_5 + 310.51 xhk_5_5 + 105.8 xhk_6_5 + 105.8 xhk_7_5 <= 503.68
_C27: 261.27 xhk_0_6 + 261.27 xhk_1_6 + 560.89 xhk_2_6 + 560.89 xhk_3_6
 + 310.51 xhk_4_6 + 310.51 xhk_5_6 + 105.8 xhk_6_6 + 105.8 xhk_7_6 <= 701.78
_C28: 261.27 xhk_0_7 + 261.27 xhk_1_7 + 560.89 xhk_2_7 + 560.89 xhk_3_7
 + 310.51 xhk_4_7 + 310.51 xhk_5_7 + 105.8 xhk_6_7 + 105.8 xhk_7_7 <= 701.78
_C29: 261.27 xhk_0_8 + 261.27 xhk_1_8 + 560.89 xhk_2_8 + 560.89 xhk_3_8
 + 310.51 xhk_4_8 + 310.51 xhk_5_8 + 105.8 xhk_6_8 + 105.8 xhk_7_8 <= 701.78
_C3: xhk_2_0 + xhk_2_1 + xhk_2_2 + xhk_2_3 + xhk_2_4 + xhk_2_5 + xhk_2_6
 + xhk_2_7 + xhk_2_8 = 1
_C30: - 0.172226946428 xhk_0_0 - 0.172226946428 xhk_0_1
 - 0.172226946428 xhk_0_2 - 0.172226946428 xhk_1_0 - 0.172226946428 xhk_1_1
 - 0.172226946428 xhk_1_2 - 0.369733884417 xhk_2_0 - 0.369733884417 xhk_2_1
 - 0.369733884417 xhk_2_2 - 0.369733884417 xhk_3_0 - 0.369733884417 xhk_3_1
 - 0.369733884417 xhk_3_2 - 0.204685532726 xhk_4_0 - 0.204685532726 xhk_4_1
 - 0.204685532726 xhk_4_2 - 0.204685532726 xhk_5_0 - 0.204685532726 xhk_5_1
 - 0.204685532726 xhk_5_2 - 0.069742453906 xhk_6_0 - 0.069742453906 xhk_6_1
 - 0.069742453906 xhk_6_2 - 0.069742453906 xhk_7_0 - 0.069742453906 xhk_7_1
 - 0.069742453906 xhk_7_2 + z >= 0
_C31: - 0.172907401525 xhk_0_3 - 0.172907401525 xhk_0_4
 - 0.172907401525 xhk_0_5 - 0.172907401525 xhk_1_3 - 0.172907401525 xhk_1_4
 - 0.172907401525 xhk_1_5 - 0.371194673867 xhk_2_3 - 0.371194673867 xhk_2_4
 - 0.371194673867 xhk_2_5 - 0.371194673867 xhk_3_3 - 0.371194673867 xhk_3_4
 - 0.371194673867 xhk_3_5 - 0.20549422914 xhk_4_3 - 0.20549422914 xhk_4_4
 - 0.20549422914 xhk_4_5 - 0.20549422914 xhk_5_3 - 0.20549422914 xhk_5_4
 - 0.20549422914 xhk_5_5 - 0.0700180008471 xhk_6_3 - 0.0700180008471 xhk_6_4
 - 0.0700180008471 xhk_6_5 - 0.0700180008471 xhk_7_3 - 0.0700180008471 xhk_7_4
 - 0.0700180008471 xhk_7_5 + z >= 0
_C32: - 0.124098720397 xhk_0_6 - 0.124098720397 xhk_0_7
 - 0.124098720397 xhk_0_8 - 0.124098720397 xhk_1_6 - 0.124098720397 xhk_1_7
 - 0.124098720397 xhk_1_8 - 0.266413025925 xhk_2_6 - 0.266413025925 xhk_2_7
 - 0.266413025925 xhk_2_8 - 0.266413025925 xhk_3_6 - 0.266413025925 xhk_3_7
 - 0.266413025925 xhk_3_8 - 0.147486866729 xhk_4_6 - 0.147486866729 xhk_4_7
 - 0.147486866729 xhk_4_8 - 0.147486866729 xhk_5_6 - 0.147486866729 xhk_5_7
 - 0.147486866729 xhk_5_8 - 0.0502531657594 xhk_6_6 - 0.0502531657594 xhk_6_7
 - 0.0502531657594 xhk_6_8 - 0.0502531657594 xhk_7_6 - 0.0502531657594 xhk_7_7
 - 0.0502531657594 xhk_7_8 + z >= 0
_C4: xhk_3_0 + xhk_3_1 + xhk_3_2 + xhk_3_3 + xhk_3_4 + xhk_3_5 + xhk_3_6
 + xhk_3_7 + xhk_3_8 = 1
_C5: xhk_4_0 + xhk_4_1 + xhk_4_2 + xhk_4_3 + xhk_4_4 + xhk_4_5 + xhk_4_6
 + xhk_4_7 + xhk_4_8 = 1
_C6: xhk_5_0 + xhk_5_1 + xhk_5_2 + xhk_5_3 + xhk_5_4 + xhk_5_5 + xhk_5_6
 + xhk_5_7 + xhk_5_8 = 1
_C7: xhk_6_0 + xhk_6_1 + xhk_6_2 + xhk_6_3 + xhk_6_4 + xhk_6_5 + xhk_6_6
 + xhk_6_7 + xhk_6_8 = 1
_C8: xhk_7_0 + xhk_7_1 + xhk_7_2 + xhk_7_3 + xhk_7_4 + xhk_7_5 + xhk_7_6
 + xhk_7_7 + xhk_7_8 = 1
_C9: xhk_0_0 + xhk_0_1 + xhk_0_2 + xhk_1_0 + xhk_1_1 + xhk_1_2 - 2 xtc_0_0 = 0
Bounds
z <= 1
Binaries
xhk_0_0
xhk_0_1
xhk_0_2
xhk_0_3
xhk_0_4
xhk_0_5
xhk_0_6
xhk_0_7
xhk_0_8
xhk_1_0
xhk_1_1
xhk_1_2
xhk_1_3
xhk_1_4
xhk_1_5
xhk_1_6
xhk_1_7
xhk_1_8
xhk_2_0
xhk_2_1
xhk_2_2
xhk_2_3
xhk_2_4
xhk_2_5
xhk_2_6
xhk_2_7
xhk_2_8
xhk_3_0
xhk_3_1
xhk_3_2
xhk_3_3
xhk_3_4
xhk_3_5
xhk_3_6
xhk_3_7
xhk_3_8
xhk_4_0
xhk_4_1
xhk_4_2
xhk_4_3
xhk_4_4
xhk_4_5
xhk_4_6
xhk_4_7
xhk_4_8
xhk_5_0
xhk_5_1
xhk_5_2
xhk_5_3
xhk_5_4
xhk_5_5
xhk_5_6
xhk_5_7
xhk_5_8
xhk_6_0
xhk_6_1
xhk_6_2
xhk_6_3
xhk_6_4
xhk_6_5
xhk_6_6
xhk_6_7
xhk_6_8
xhk_7_0
xhk_7_1
xhk_7_2
xhk_7_3
xhk_7_4
xhk_7_5
xhk_7_6
xhk_7_7
xhk_7_8
xtc_0_0
xtc_0_1
xtc_0_2
xtc_1_0
xtc_1_1
xtc_1_2
xtc_2_0
xtc_2_1
xtc_2_2
xtc_3_0
xtc_3_1
xtc_3_2
End
