lab3/P3a-pulp.sol
Problem:    
Rows:       32
Columns:    85 (84 integer, 84 binary)
Non-zeros:  303
Status:     INTEGER OPTIMAL
Objective:  OBJ = 0.5328260518 (MINimum)

   No.   Row name        Activity     Lower bound   Upper bound
------ ------------    ------------- ------------- -------------
     1 _C1                         1             1             = 
     2 _C10                        0             0             = 
     3 _C11                        0             0             = 
     4 _C12                        0             0             = 
     5 _C13                        0             0             = 
     6 _C14                        0             0             = 
     7 _C15                        0             0             = 
     8 _C16                        0             0             = 
     9 _C17                        0             0             = 
    10 _C18                        0             0             = 
    11 _C19                        0             0             = 
    12 _C2                         1             1             = 
    13 _C20                        0             0             = 
    14 _C21                   310.51                      505.67 
    15 _C22                   310.51                      505.67 
    16 _C23                        0                      505.67 
    17 _C24                   367.07                      503.68 
    18 _C25                   367.07                      503.68 
    19 _C26                        0                      503.68 
    20 _C27                   560.89                      701.78 
    21 _C28                        0                      701.78 
    22 _C29                   560.89                      701.78 
    23 _C3                         1             1             = 
    24 _C30                 0.123455             0               
    25 _C31                0.0469752             0               
    26 _C32                        0             0               
    27 _C4                         1             1             = 
    28 _C5                         1             1             = 
    29 _C6                         1             1             = 
    30 _C7                         1             1             = 
    31 _C8                         1             1             = 
    32 _C9                         0             0             = 

   No. Column name       Activity     Lower bound   Upper bound
------ ------------    ------------- ------------- -------------
     1 z                    0.532826             0             1 
     2 xhk_0_0      *              0             0             1 
     3 xhk_0_1      *              0             0             1 
     4 xhk_0_2      *              0             0             1 
     5 xhk_0_3      *              1             0             1 
     6 xhk_0_4      *              0             0             1 
     7 xhk_0_5      *              0             0             1 
     8 xhk_0_6      *              0             0             1 
     9 xhk_0_7      *              0             0             1 
    10 xhk_0_8      *              0             0             1 
    11 xhk_1_3      *              0             0             1 
    12 xhk_1_4      *              1             0             1 
    13 xhk_1_5      *              0             0             1 
    14 xtc_0_1      *              1             0             1 
    15 xhk_1_6      *              0             0             1 
    16 xhk_1_7      *              0             0             1 
    17 xhk_1_8      *              0             0             1 
    18 xtc_0_2      *              0             0             1 
    19 xhk_2_0      *              0             0             1 
    20 xhk_2_1      *              0             0             1 
    21 xhk_2_2      *              0             0             1 
    22 xhk_3_0      *              0             0             1 
    23 xhk_3_1      *              0             0             1 
    24 xhk_3_2      *              0             0             1 
    25 xtc_1_0      *              0             0             1 
    26 xhk_2_3      *              0             0             1 
    27 xhk_2_4      *              0             0             1 
    28 xhk_2_5      *              0             0             1 
    29 xhk_3_3      *              0             0             1 
    30 xhk_3_4      *              0             0             1 
    31 xhk_3_5      *              0             0             1 
    32 xtc_1_1      *              0             0             1 
    33 xhk_2_6      *              1             0             1 
    34 xhk_2_7      *              0             0             1 
    35 xhk_2_8      *              0             0             1 
    36 xhk_3_6      *              0             0             1 
    37 xhk_3_7      *              0             0             1 
    38 xhk_3_8      *              1             0             1 
    39 xtc_1_2      *              1             0             1 
    40 xhk_4_0      *              1             0             1 
    41 xhk_4_1      *              0             0             1 
    42 xhk_4_2      *              0             0             1 
    43 xhk_5_0      *              0             0             1 
    44 xhk_5_1      *              1             0             1 
    45 xhk_5_2      *              0             0             1 
    46 xtc_2_0      *              1             0             1 
    47 xhk_4_3      *              0             0             1 
    48 xhk_4_4      *              0             0             1 
    49 xhk_4_5      *              0             0             1 
    50 xhk_5_3      *              0             0             1 
    51 xhk_5_4      *              0             0             1 
    52 xhk_5_5      *              0             0             1 
    53 xtc_2_1      *              0             0             1 
    54 xhk_4_6      *              0             0             1 
    55 xhk_4_7      *              0             0             1 
    56 xhk_4_8      *              0             0             1 
    57 xhk_5_6      *              0             0             1 
    58 xhk_5_7      *              0             0             1 
    59 xhk_5_8      *              0             0             1 
    60 xtc_2_2      *              0             0             1 
    61 xhk_6_0      *              0             0             1 
    62 xhk_6_1      *              0             0             1 
    63 xhk_6_2      *              0             0             1 
    64 xhk_7_0      *              0             0             1 
    65 xhk_7_1      *              0             0             1 
    66 xhk_7_2      *              0             0             1 
    67 xtc_3_0      *              0             0             1 
    68 xhk_6_3      *              1             0             1 
    69 xhk_6_4      *              0             0             1 
    70 xhk_6_5      *              0             0             1 
    71 xhk_7_3      *              0             0             1 
    72 xhk_7_4      *              1             0             1 
    73 xhk_7_5      *              0             0             1 
    74 xtc_3_1      *              1             0             1 
    75 xhk_1_0      *              0             0             1 
    76 xhk_1_1      *              0             0             1 
    77 xhk_1_2      *              0             0             1 
    78 xhk_6_6      *              0             0             1 
    79 xhk_6_7      *              0             0             1 
    80 xhk_6_8      *              0             0             1 
    81 xhk_7_6      *              0             0             1 
    82 xhk_7_7      *              0             0             1 
    83 xhk_7_8      *              0             0             1 
    84 xtc_3_2      *              0             0             1 
    85 xtc_0_0      *              0             0             1 

Integer feasibility conditions:

KKT.PE: max.abs.err = 0.00e+00 on row 0
        max.rel.err = 0.00e+00 on row 0
        High quality

KKT.PB: max.abs.err = 0.00e+00 on row 0
        max.rel.err = 0.00e+00 on row 0
        High quality

End of output
